unknown
(model
; cardinality of BoundSet is 2
(declare-sort BoundSet 0)
; rep: @uc_BoundSet_0
; rep: @uc_BoundSet_1
; cardinality of UnboundSet is 1
(declare-sort UnboundSet 0)
(declare-fun groundTerm_3 () UnboundSet)
(define-fun IsBlond ((BOUND_VARIABLE_430 BoundSet)) Bool (= @uc_BoundSet_0 BOUND_VARIABLE_430))
(define-fun IsBehind ((BOUND_VARIABLE_430 BoundSet)) Bool (= @uc_BoundSet_1 BOUND_VARIABLE_430))
(define-fun IsSmiling ((BOUND_VARIABLE_445 BoundSet) (BOUND_VARIABLE_446 BoundSet)) Bool false)
)
sat
(model
; cardinality of BoundSet is 2
(declare-sort BoundSet 0)
; rep: @uc_BoundSet_0
; rep: @uc_BoundSet_1
; cardinality of UnboundSet is 1
(declare-sort UnboundSet 0)
(declare-fun groundTerm_5 () UnboundSet)
(define-fun IsBlond ((BOUND_VARIABLE_457 BoundSet)) Bool (= @uc_BoundSet_0 BOUND_VARIABLE_457))
(define-fun IsBehind ((BOUND_VARIABLE_457 BoundSet)) Bool (= @uc_BoundSet_1 BOUND_VARIABLE_457))
(define-fun IsSmiling ((BOUND_VARIABLE_472 BoundSet) (BOUND_VARIABLE_473 BoundSet)) Bool false)
)
